###############################################
#####                SECTION: basic
###############################################
ngkpt 1 1 1
kptopt 1
iomode 3
nshiftk 1
shiftk 0.0 0.0 0.0 
nband 10
# ecut 50
ecut 15
tolvrs 1e-14
nsppol 2
usekden 1  # Since we want meta-GGA
ixc -101130  # gga_c_pbe, gga_x_pbe
nstep 100
chkprim 0 # Allow non-primitive cells
occopt 7
pseudos "O-q6-pbe.abinit.hgh"
output_file "oxygen_PBE.abo"

##############################################
####               SECTION: gstate               
##############################################
 nspinor 1
 nspden 2
 tsmear 0.02
 spinat
    0.0    0.0    1.0
    0.0    0.0    1.0

##############################################
#####                SECTION: paral
###############################################
paral_kgb 0

##############################################
#####                  STRUCTURE
###############################################
 natom 2
 ntypat 1
 typat 1 1
 znucl 8
 xred
    0.0000000000    0.0000000000    0.1155000000
    0.0000000000    0.0000000000   -0.1155000000
 acell    1.0    1.0    1.0
 rprim
    6.4999999971    0.0000000000    0.0000000000
    0.0000000000    6.4999999971    0.0000000000
    0.0000000000    0.0000000000    8.9999999960
