! Si.win file generated by DFTK at 2021-07-05T16:14:05.909

num_bands            =    12 
num_wann             =     8 

num_print_cycles     =   50                            
num_iter             =   500                           
dis_win_max          =   17.185257d0                   
dis_froz_max         =   6.8318033d0                   
dis_num_iter         =   120                           
dis_mix_ratio        =   1d0                           


!!!!!!!!!!!!!!!!!!!! System 

begin unit_cell_cart
bohr
 -5.130000   0.000000   5.130000 
  0.000000   5.130000   5.130000 
 -5.130000   5.130000   0.000000 
end unit_cell_cart 

begin atoms_frac
Si   0.000000   0.000000   0.000000 
Si  -0.250000   0.750000  -0.250000 
end atoms_frac

begin projections
Si: sp3
end projections

!!!!!!!!!!!!!!!!!!!! k_points

begin kpoint_path
Γ   0.000000   0.000000   0.000000  X  -0.500000   0.000000  -0.500000 
X  -0.500000   0.000000  -0.500000  W  -0.500000   0.250000  -0.250000 
W  -0.500000   0.250000  -0.250000  K   0.375000   0.375000  -0.250000 
K   0.375000   0.375000  -0.250000  Γ   0.000000   0.000000   0.000000 
Γ   0.000000   0.000000   0.000000  L  -0.500000  -0.500000  -0.500000 
L  -0.500000  -0.500000  -0.500000  U  -0.375000   0.250000  -0.375000 
U  -0.375000   0.250000  -0.375000  W  -0.500000   0.250000  -0.250000 
W  -0.500000   0.250000  -0.250000  L  -0.500000  -0.500000  -0.500000 
L  -0.500000  -0.500000  -0.500000  K   0.375000   0.375000  -0.250000 
end kpoint_path
bands_plot = T

mp_grid : 4 4 4

begin kpoints
 -0.125000  -0.125000  -0.125000 
  0.125000  -0.125000  -0.125000 
  0.375000  -0.125000  -0.125000 
 -0.375000  -0.125000  -0.125000 
 -0.125000   0.125000  -0.125000 
  0.125000   0.125000  -0.125000 
  0.375000   0.125000  -0.125000 
 -0.375000   0.125000  -0.125000 
 -0.125000   0.375000  -0.125000 
  0.125000   0.375000  -0.125000 
  0.375000   0.375000  -0.125000 
 -0.375000   0.375000  -0.125000 
 -0.125000  -0.375000  -0.125000 
  0.125000  -0.375000  -0.125000 
  0.375000  -0.375000  -0.125000 
 -0.375000  -0.375000  -0.125000 
 -0.125000  -0.125000   0.125000 
  0.125000  -0.125000   0.125000 
  0.375000  -0.125000   0.125000 
 -0.375000  -0.125000   0.125000 
 -0.125000   0.125000   0.125000 
  0.125000   0.125000   0.125000 
  0.375000   0.125000   0.125000 
 -0.375000   0.125000   0.125000 
 -0.125000   0.375000   0.125000 
  0.125000   0.375000   0.125000 
  0.375000   0.375000   0.125000 
 -0.375000   0.375000   0.125000 
 -0.125000  -0.375000   0.125000 
  0.125000  -0.375000   0.125000 
  0.375000  -0.375000   0.125000 
 -0.375000  -0.375000   0.125000 
 -0.125000  -0.125000   0.375000 
  0.125000  -0.125000   0.375000 
  0.375000  -0.125000   0.375000 
 -0.375000  -0.125000   0.375000 
 -0.125000   0.125000   0.375000 
  0.125000   0.125000   0.375000 
  0.375000   0.125000   0.375000 
 -0.375000   0.125000   0.375000 
 -0.125000   0.375000   0.375000 
  0.125000   0.375000   0.375000 
  0.375000   0.375000   0.375000 
 -0.375000   0.375000   0.375000 
 -0.125000  -0.375000   0.375000 
  0.125000  -0.375000   0.375000 
  0.375000  -0.375000   0.375000 
 -0.375000  -0.375000   0.375000 
 -0.125000  -0.125000  -0.375000 
  0.125000  -0.125000  -0.375000 
  0.375000  -0.125000  -0.375000 
 -0.375000  -0.125000  -0.375000 
 -0.125000   0.125000  -0.375000 
  0.125000   0.125000  -0.375000 
  0.375000   0.125000  -0.375000 
 -0.375000   0.125000  -0.375000 
 -0.125000   0.375000  -0.375000 
  0.125000   0.375000  -0.375000 
  0.375000   0.375000  -0.375000 
 -0.375000   0.375000  -0.375000 
 -0.125000  -0.375000  -0.375000 
  0.125000  -0.375000  -0.375000 
  0.375000  -0.375000  -0.375000 
 -0.375000  -0.375000  -0.375000 
end kpoints

